NAME : in_house_7_15
TYPE : TSP
DIMENSION : 7
EDGE_WEIGHT_TYPE : EXPLICIT
EDGE_WEIGHT_FORMAT : UPPER_ROW
COMMENT : INVERSION_SHIFT=2
EDGE_WEIGHT_SECTION
38
12
27
12
46
48
34
37
43
38
33
19
8
35
1
10
44
44
28
39
28
